proyfinal/src/viki/013/experimentInOfficeAgust.take6.output/1d1c31f7-3a4e-42ac-be75-389eb6c2c2cb.als.out
Reading from standard input... Use '--help' for help.
============================[ Problem Statistics ]=============================
|                                                                             |
|  Number of variables:         87638                                         |
|  Number of clauses:          161767                                         |
|  Parse time:                   0.04 s                                       |
|                                                                             |
============================[ Search Statistics ]==============================
| Conflicts |          ORIGINAL         |          LEARNT          | Progress |
|           |    Vars  Clauses Literals |    Limit  Clauses Lit/Cl |          |
===============================================================================
|       100 |   63216   108221   270359 |    39681      100     10 | 27.867 % |
|       250 |   63216   108221   270359 |    43649      250      9 | 27.867 % |
|       475 |   63150   108155   270187 |    48014      464     10 | 27.942 % |
|       812 |   63135   107924   269571 |    52815      754     21 | 27.959 % |
|      1318 |   63111   107824   269342 |    58097     1259     53 | 27.987 % |
|      2077 |   63111   107824   269342 |    63906     2018     84 | 27.987 % |
|      3216 |   63111   107824   269342 |    70297     3157     76 | 27.987 % |
|      4924 |   63085   107716   269095 |    77327     4860     69 | 28.016 % |
|      7486 |   63085   107716   269095 |    85059     7422     75 | 28.016 % |
===============================================================================
restarts              : 46
conflicts             : 10505          (7616 /sec)
decisions             : 44569          (0.00 % random) (32313 /sec)
propagations          : 15409320       (11171784 /sec)
conflict literals     : 785553         (45.98 % deleted)
Memory used           : 30.40 MB
CPU time              : 1.37931 s

INDETERMINATE
